c defined variables: 8 9 10 11 12 13 14 15 16 17 18 19 20 21 22 23 24 25 26 27 28 29 30 31 32 33 43 44 45 46 47 49 50 51 52 53 54 55 56 57 58 59 60 61 62 63 64 65 66 67 68 69 70 71 72 
p cnf 360 553
a 1 2 3 4 5 6 7 36 37 38 39 40 41 0
e 8 9 10 11 12 13 14 15 16 17 18 19 20 21 22 23 24 25 26 27 28 29 30 31 32 33 43 44 45 46 47 49 50 51 52 53 54 55 56 57 58 59 60 61 62 63 64 65 66 67 68 69 70 71 72 282 283 284 285 286 287 288 289 290 291 292 293 294 295 296 297 298 299 300 301 302 303 304 305 306 307 308 309 310 311 312 313 314 315 316 317 318 319 320 321 322 323 324 325 326 327 328 329 330 331 332 333 334 335 336 337 338 339 340 341 342 343 344 345 346 347 348 349 350 351 352 353 354 355 356 357 358 359 360 0
d 34 38 39 40 41 0
d 35 36 37 0
d 42 1 2 3 4 5 6 7 36 37 38 39 40 41 0
d 48 1 2 3 4 5 6 7 36 37 38 39 40 41 0
283 -8 0
-283 8 0
284 -9 0
-284 9 0
-285 -10 0
285 10 0
286 -11 0
-286 11 0
287 -12 0
-287 12 0
-288 -13 0
288 13 0
289 -14 0
-289 14 0
290 -15 0
-290 15 0
-291 -16 0
291 16 0
292 -17 0
-292 17 0
293 -18 0
-293 18 0
-294 -19 0
294 19 0
295 -20 0
-295 20 0
296 -21 0
-296 21 0
-297 -22 0
297 22 0
-298 -23 0
298 23 0
299 -24 0
-299 24 0
301 -25 0
-301 25 0
303 -26 0
-303 26 0
-305 -27 0
305 27 0
306 -28 0
-306 28 0
307 -29 0
-307 29 0
309 -30 0
-309 30 0
310 -31 0
-310 31 0
311 -32 0
-311 32 0
-315 -33 0
315 33 0
-42 -43 0
42 43 0
282 -44 0
-282 44 0
-298 -45 0
298 45 0
299 -46 0
-299 46 0
-282 -47 0
282 47 0
-316 -49 0
316 49 0
317 -50 0
-317 50 0
318 -51 0
-318 51 0
-282 -52 0
282 52 0
310 -53 0
-310 53 0
-282 -54 0
282 54 0
-320 -55 0
320 55 0
283 -56 0
-283 56 0
284 -57 0
-284 57 0
-321 -58 0
321 58 0
322 -59 0
-322 59 0
323 -60 0
-323 60 0
-324 -61 0
324 61 0
-331 -62 0
331 62 0
334 -63 0
-334 63 0
336 -64 0
-336 64 0
339 -65 0
-339 65 0
342 -66 0
-342 66 0
345 -67 0
-345 67 0
348 -68 0
-348 68 0
351 -69 0
-351 69 0
354 -70 0
-354 70 0
357 -71 0
-357 71 0
360 -72 0
-360 72 0
-8 1 0
-8 4 0
-1 -4 8 0
-9 -1 0
-9 -4 0
1 4 9 0
-8 10 0
-9 10 0
-10 8 9 0
-11 7 0
-11 10 0
-7 -10 11 0
-12 -7 0
-12 -10 0
7 10 12 0
-11 13 0
-12 13 0
-13 11 12 0
-14 4 0
-14 7 0
-4 -7 14 0
-15 1 0
-15 -13 0
-1 13 15 0
-14 16 0
-15 16 0
-16 14 15 0
-17 3 0
-17 6 0
-3 -6 17 0
-18 -3 0
-18 -6 0
3 6 18 0
-17 19 0
-18 19 0
-19 17 18 0
-20 16 0
-20 19 0
-16 -19 20 0
-21 -16 0
-21 -19 0
16 19 21 0
-20 22 0
-21 22 0
-22 20 21 0
-2 23 0
-5 23 0
-23 2 5 0
-24 2 0
-24 5 0
-2 -5 24 0
-25 3 0
-25 -22 0
-25 23 0
-3 22 -23 25 0
-26 6 0
-26 16 0
-26 23 0
-6 -16 -23 26 0
-24 27 0
-25 27 0
-26 27 0
-27 24 25 26 0
-28 -27 0
-28 23 0
27 -23 28 0
-29 3 0
-29 6 0
-29 -27 0
-3 -6 27 29 0
-30 -27 0
-30 -22 0
-30 16 0
27 22 -16 30 0
-31 2 0
-31 3 0
-31 5 0
-31 6 0
-2 -3 -5 -6 31 0
-32 2 0
-32 5 0
-32 -22 0
-32 16 0
-2 -5 22 -16 32 0
-28 33 0
-29 33 0
-30 33 0
-31 33 0
-32 33 0
-33 28 29 30 31 32 0
-35 42 0
-34 42 0
-42 35 34 0
-43 -34 0
-43 -35 0
34 35 43 0
-42 44 0
-43 44 0
-44 42 43 0
-2 45 0
-5 45 0
-45 2 5 0
-46 2 0
-46 5 0
-2 -5 46 0
-47 3 0
-47 -44 0
-47 45 0
-3 44 -45 47 0
-48 6 0
-48 34 0
-48 45 0
-6 -34 -45 48 0
-46 49 0
-47 49 0
-48 49 0
-49 46 47 48 0
-50 -49 0
-50 45 0
49 -45 50 0
-51 3 0
-51 6 0
-51 -49 0
-3 -6 49 51 0
-52 -49 0
-52 -44 0
-52 34 0
49 44 -34 52 0
-53 2 0
-53 3 0
-53 5 0
-53 6 0
-2 -3 -5 -6 53 0
-54 2 0
-54 5 0
-54 -44 0
-54 34 0
-2 -5 44 -34 54 0
-50 55 0
-51 55 0
-52 55 0
-53 55 0
-54 55 0
-55 50 51 52 53 54 0
-56 1 0
-56 4 0
-1 -4 56 0
-57 -1 0
-57 -4 0
1 4 57 0
-56 58 0
-57 58 0
-58 56 57 0
-59 7 0
-59 58 0
-7 -58 59 0
-60 -7 0
-60 -58 0
7 58 60 0
-59 61 0
-60 61 0
-61 59 60 0
-62 -27 49 0
-62 27 -49 0
62 -27 -49 0
62 27 49 0
-63 -33 55 0
-63 33 -55 0
63 -33 -55 0
63 33 55 0
-64 -22 44 0
-64 22 -44 0
64 -22 -44 0
64 22 44 0
-65 -13 61 0
-65 13 -61 0
65 -13 -61 0
65 13 61 0
-62 -63 -64 -65 66 0
-66 62 0
-66 63 0
-66 64 0
-66 65 0
-3 -36 -67 0
-3 36 67 0
3 -36 67 0
3 36 -67 0
-6 -37 -68 0
-6 37 68 0
6 -37 68 0
6 37 -68 0
-1 -38 -69 0
-1 38 69 0
1 -38 69 0
1 38 -69 0
-4 -39 -70 0
-4 39 70 0
4 -39 70 0
4 39 -70 0
-7 -40 -71 0
-7 40 71 0
7 -40 71 0
7 40 -71 0
-61 -41 -72 0
-61 41 72 0
61 -41 72 0
61 41 -72 0
67 68 69 70 71 72 66 0
282 0
1 -283 0
4 -283 0
-1 -4 283 0
-1 -284 0
-4 -284 0
1 4 284 0
-8 -285 0
-9 -285 0
8 9 285 0
7 -286 0
10 -286 0
-7 -10 286 0
-7 -287 0
-10 -287 0
7 10 287 0
-11 -288 0
-12 -288 0
11 12 288 0
4 -289 0
7 -289 0
-4 -7 289 0
1 -290 0
-13 -290 0
-1 13 290 0
-14 -291 0
-15 -291 0
14 15 291 0
3 -292 0
6 -292 0
-3 -6 292 0
-3 -293 0
-6 -293 0
3 6 293 0
-17 -294 0
-18 -294 0
17 18 294 0
16 -295 0
19 -295 0
-16 -19 295 0
-16 -296 0
-19 -296 0
16 19 296 0
-20 -297 0
-21 -297 0
20 21 297 0
-2 -298 0
-5 -298 0
2 5 298 0
2 -299 0
5 -299 0
-2 -5 299 0
3 -300 0
-22 -300 0
-3 22 300 0
23 -301 0
300 -301 0
-23 -300 301 0
6 -302 0
16 -302 0
-6 -16 302 0
23 -303 0
302 -303 0
-23 -302 303 0
-24 -304 0
-25 -304 0
24 25 304 0
-26 -305 0
304 -305 0
26 -304 305 0
23 -306 0
-27 -306 0
-23 27 306 0
-27 -307 0
292 -307 0
27 -292 307 0
16 -308 0
-22 -308 0
-16 22 308 0
-27 -309 0
308 -309 0
27 -308 309 0
292 -310 0
299 -310 0
-292 -299 310 0
299 -311 0
308 -311 0
-299 -308 311 0
-28 -312 0
-29 -312 0
28 29 312 0
-30 -313 0
-31 -313 0
30 31 313 0
-32 -314 0
313 -314 0
32 -313 314 0
312 -315 0
314 -315 0
-312 -314 315 0
-46 -316 0
-48 -316 0
46 48 316 0
45 -317 0
-49 -317 0
-45 49 317 0
-49 -318 0
292 -318 0
49 -292 318 0
-50 -319 0
-51 -319 0
50 51 319 0
-53 -320 0
319 -320 0
53 -319 320 0
-56 -321 0
-57 -321 0
56 57 321 0
7 -322 0
58 -322 0
-7 -58 322 0
-7 -323 0
-58 -323 0
7 58 323 0
-59 -324 0
-60 -324 0
59 60 324 0
-47 -325 0
-48 -325 0
47 48 325 0
-299 -326 0
325 -326 0
299 -325 326 0
27 -327 0
49 -327 0
-27 -49 327 0
-326 -328 0
327 -328 0
326 -327 328 0
-27 -329 0
-49 -329 0
27 49 329 0
-299 -330 0
329 -330 0
299 -329 330 0
-328 -331 0
-330 -331 0
328 330 331 0
33 -332 0
-55 -332 0
-33 55 332 0
-33 -333 0
55 -333 0
33 -55 333 0
-332 -334 0
-333 -334 0
332 333 334 0
-42 -335 0
-43 -335 0
42 43 335 0
22 -336 0
-335 -336 0
-22 335 336 0
13 -337 0
-61 -337 0
-13 61 337 0
-13 -338 0
61 -338 0
13 -61 338 0
-337 -339 0
-338 -339 0
337 338 339 0
62 -340 0
63 -340 0
-62 -63 340 0
64 -341 0
65 -341 0
-64 -65 341 0
340 -342 0
341 -342 0
-340 -341 342 0
-3 -343 0
-36 -343 0
3 36 343 0
3 -344 0
36 -344 0
-3 -36 344 0
-343 -345 0
-344 -345 0
343 344 345 0
-6 -346 0
-37 -346 0
6 37 346 0
6 -347 0
37 -347 0
-6 -37 347 0
-346 -348 0
-347 -348 0
346 347 348 0
-1 -349 0
-38 -349 0
1 38 349 0
1 -350 0
38 -350 0
-1 -38 350 0
-349 -351 0
-350 -351 0
349 350 351 0
-4 -352 0
-39 -352 0
4 39 352 0
4 -353 0
39 -353 0
-4 -39 353 0
-352 -354 0
-353 -354 0
352 353 354 0
-7 -355 0
-40 -355 0
7 40 355 0
7 -356 0
40 -356 0
-7 -40 356 0
-355 -357 0
-356 -357 0
355 356 357 0
-41 -358 0
-61 -358 0
41 61 358 0
41 -359 0
61 -359 0
-41 -61 359 0
-358 -360 0
-359 -360 0
358 359 360 0
